data/mip_solutions/furman_sahinidis/transshipment/37sp-yfyv_gurobi.sol
Elapsed time: 6.02222895622
Nodes explored: 7598
Upper bound: 36.0000054549
Lower bound: 35.0
y[0,0]=1
y[1,7]=1
y[1,9]=1
y[1,14]=1
y[2,0]=1
y[2,1]=1
y[2,3]=1
y[2,5]=1
y[2,13]=1
y[3,13]=1
y[4,13]=1
y[4,16]=1
y[5,0]=1
y[5,11]=1
y[6,0]=1
y[7,0]=1
y[8,9]=1
y[8,16]=1
y[9,0]=1
y[10,16]=1
y[11,0]=1
y[11,8]=1
y[11,10]=1
y[12,16]=1
y[13,0]=1
y[13,6]=1
y[14,16]=1
y[15,16]=1
y[16,16]=1
y[17,0]=1
y[18,16]=1
y[19,16]=1
y[20,2]=1
y[20,4]=1
y[20,12]=1
y[20,15]=1
y[20,16]=1
q[0,0,7]=31434.0
q[0,0,8]=35714.2000001
q[0,0,9]=17124.0
q[0,0,10]=8256.0
q[0,0,14]=2953.8
q[0,0,16]=6783.9
q[0,0,17]=3676.0
q[0,0,26]=2461.5
q[0,0,27]=14671.6
q[1,7,9]=193.0
q[1,9,17]=228.0
q[1,14,16]=18562.5
q[1,14,17]=3750.0
q[1,14,18]=30000.0
q[1,14,19]=8437.5
q[1,14,20]=14062.5
q[1,14,21]=9937.5
q[1,14,22]=1500.0
q[2,0,6]=9846.0
q[2,0,8]=62745.7999999
q[2,0,11]=104438.4
q[2,0,12]=13292.1
q[2,0,13]=14769.0
q[2,1,3]=7898.0
q[2,3,3]=6833.5
q[2,5,13]=778.0
q[2,5,14]=466.8
q[2,5,15]=778.0
q[2,5,16]=13537.2
q[2,5,17]=1556.0
q[2,13,11]=0.152341883204
q[2,13,13]=0.106285034898
q[2,13,14]=0.0212570069797
q[2,13,15]=0.0354283449661
q[2,13,16]=0.61645320241
q[2,13,17]=0.0708566899322
q[2,13,18]=0.197377915091
q[3,13,11]=27906.8476581
q[3,13,12]=17523.0
q[3,13,18]=103839.802622
q[3,13,19]=10780.3497198
q[4,13,13]=19469.893715
q[4,13,14]=3893.97874299
q[4,13,15]=6489.96457166
q[4,13,16]=112925.383547
q[4,13,17]=12979.9291433
q[4,13,19]=18424.6502802
q[4,13,20]=48675.0
q[4,16,31]=2282995.2
q[5,0,7]=7950.0
q[5,0,9]=22260.0
q[5,0,10]=1590.0
q[5,0,11]=20113.5
q[5,0,16]=19636.5
q[5,0,17]=1590.0
q[5,0,19]=945.3
q[5,0,22]=3938.4
q[5,0,24]=20660.3
q[5,11,18]=4666.0
q[6,0,15]=2216.0
q[6,0,16]=17912.6
q[6,0,18]=49297.6
q[6,0,19]=21208.2
q[6,0,20]=2272.9
q[6,0,21]=26091.9
q[6,0,24]=10415.2
q[7,0,16]=39846.0
q[7,0,17]=4580.0
q[7,0,18]=29470.4
q[7,0,20]=34649.6
q[7,0,23]=19199.7
q[7,0,27]=3700.3
q[8,9,17]=1392.5
q[8,16,31]=114473.1
q[9,0,24]=5998.4
q[9,0,27]=3781.6
q[10,16,31]=10380.0
q[11,0,15]=2707.0
q[11,0,24]=8217.7
q[11,0,25]=24192.4
q[11,8,29]=325.0
q[11,10,28]=1631.0
q[12,16,31]=33600.0
q[13,0,25]=4361.0
q[13,6,26]=724.0
q[14,16,31]=27332.8
q[15,0,22]=7.72151906858e-08
q[15,16,31]=6265.0
q[16,16,31]=21282.3
q[17,0,16]=1481.2
q[18,16,31]=14718.0
q[19,16,31]=24942.9
q[20,2,10]=3201.0
q[20,4,1]=67368.0
q[20,4,2]=8020.0
q[20,4,3]=8020.0
q[20,12,1]=100800.0
q[20,12,2]=31500.0
q[20,15,1]=1549766.0
q[20,15,2]=63515.0
q[20,15,3]=63515.0
q[20,15,4]=63515.0
q[20,15,5]=63515.0
q[20,15,6]=25406.0
q[20,15,7]=101624.0
q[20,15,8]=254060.0
q[20,16,31]=14644895.0
r[0,6]=24615.0
r[0,7]=34461.0
r[0,8]=42411.0
r[0,9]=55926.7999999
r[0,10]=38802.7999999
r[0,11]=30546.7999999
r[0,12]=30546.7999999
r[0,13]=30546.7999999
r[0,14]=30546.7999999
r[0,15]=27592.9999999
r[0,16]=27592.9999999
r[0,17]=20809.0999999
r[0,18]=17133.0999999
r[0,19]=17133.0999999
r[0,20]=17133.0999999
r[0,21]=17133.0999999
r[0,22]=17133.0999999
r[0,23]=17133.1
r[0,24]=17133.1
r[0,25]=17133.1
r[0,26]=17133.1
r[0,27]=14671.6
r[1,8]=6136.0
r[1,9]=21476.0
r[1,10]=27419.0
r[1,11]=28953.0
r[1,12]=48358.1
r[1,13]=50429.0
r[1,14]=52730.0
r[1,15]=53190.2
r[1,16]=53957.2
r[1,17]=48740.5
r[1,18]=46296.5
r[1,19]=28568.5
r[1,20]=23582.5
r[1,21]=11437.5
r[1,22]=1500.0
r[2,3]=78980.0
r[2,4]=143228.5
r[2,5]=222208.5
r[2,6]=222208.5
r[2,7]=212362.5
r[2,8]=212362.5
r[2,9]=149616.7
r[2,10]=149616.7
r[2,11]=149616.7
r[2,12]=45178.1476582
r[2,13]=31886.0476582
r[2,14]=16338.9413732
r[2,15]=15872.1201162
r[2,16]=15094.0846878
r[2,17]=1556.26823461
r[2,18]=0.197377915091
r[3,9]=128040.0
r[3,10]=160050.0
r[3,11]=160050.0
r[3,12]=132143.152342
r[3,13]=114620.152342
r[3,14]=114620.152342
r[3,15]=114620.152342
r[3,16]=114620.152342
r[3,17]=114620.152342
r[3,18]=114620.152342
r[3,19]=10780.3497198
r[4,14]=101781.106285
r[4,15]=122137.327542
r[4,16]=156064.36297
r[4,17]=746394.779424
r[4,18]=814248.85028
r[4,19]=1460920.85028
r[4,20]=1624372.7
r[4,21]=1878825.2
r[4,22]=2093035.3
r[4,23]=2125368.9
r[4,24]=2282995.2
r[4,25]=2282995.2
r[4,26]=2282995.2
r[4,27]=2282995.2
r[4,28]=2282995.2
r[4,29]=2282995.2
r[4,30]=2282995.2
r[4,31]=2282995.2
r[5,7]=1590.0
r[5,9]=15900.0
r[5,13]=2146.5
r[5,14]=4531.5
r[5,15]=5008.5
r[5,16]=5803.5
r[5,19]=8054.0
r[5,20]=10686.2
r[5,21]=16648.7
r[5,22]=20862.2
r[5,23]=17559.8
r[5,24]=20660.3
r[6,17]=20645.8
r[6,18]=25077.8
r[6,19]=11236.2
r[6,21]=14347.1
r[6,23]=1772.8
r[6,24]=10415.2
r[7,19]=7169.6
r[7,20]=17474.6
r[7,22]=12137.0
r[7,23]=13969.0
r[7,24]=3700.3
r[7,25]=3700.3
r[7,26]=3700.3
r[7,27]=3700.3
r[8,16]=1984.0
r[8,17]=36505.6
r[8,18]=39081.1
r[8,19]=70825.1
r[8,20]=79753.1
r[8,21]=94633.1
r[8,22]=105148.3
r[8,23]=106735.5
r[8,24]=114473.1
r[8,25]=114473.1
r[8,26]=114473.1
r[8,27]=114473.1
r[8,28]=114473.1
r[8,29]=114473.1
r[8,30]=114473.1
r[8,31]=114473.1
r[9,26]=3781.6
r[9,27]=3781.6
r[10,27]=346.0
r[10,28]=3460.0
r[10,29]=7266.0
r[10,30]=8719.2
r[10,31]=9203.6
r[11,13]=1547.1
r[11,14]=3266.1
r[11,15]=3609.9
r[11,16]=1475.9
r[11,17]=11446.1
r[11,18]=12592.1
r[11,19]=21760.1
r[11,20]=24338.6
r[11,21]=28636.1
r[11,22]=31673.0
r[11,23]=32131.4
r[11,24]=34366.1
r[11,25]=26148.4
r[11,26]=1956.0
r[11,27]=1956.0
r[11,28]=1956.0
r[11,29]=325.0
r[12,18]=1680.0
r[12,19]=15120.0
r[12,20]=18900.0
r[12,21]=25200.0
r[12,22]=29652.0
r[12,23]=30324.0
r[12,24]=33600.0
r[12,25]=33600.0
r[12,26]=33600.0
r[12,27]=33600.0
r[12,28]=33600.0
r[12,29]=33600.0
r[12,30]=33600.0
r[12,31]=33600.0
r[13,25]=3118.8
r[13,26]=724.0
r[14,27]=776.5
r[14,28]=7765.0
r[14,29]=16306.5
r[14,30]=19567.8
r[14,31]=20654.9
r[15,21]=2685.0
r[15,22]=4582.4
r[15,23]=4868.8
r[15,24]=6265.0
r[15,25]=6265.0
r[15,26]=6265.0
r[15,27]=6265.0
r[15,28]=6265.0
r[15,29]=6265.0
r[15,30]=6265.0
r[15,31]=6265.0
r[17,15]=317.4
r[17,16]=846.4
r[18,26]=14718.0
r[18,27]=14718.0
r[18,28]=14718.0
r[18,29]=14718.0
r[18,30]=14718.0
r[18,31]=14718.0
r[19,23]=4245.6
r[19,24]=24942.9
r[19,25]=24942.9
r[19,26]=24942.9
r[19,27]=24942.9
r[19,28]=24942.9
r[19,29]=24942.9
r[19,30]=24942.9
r[19,31]=24942.9
r[20,2]=15330786.0
r[20,3]=15227751.0
r[20,4]=15156216.0
r[20,5]=15092701.0
r[20,6]=15029186.0
r[20,7]=15003780.0
r[20,8]=14902156.0
r[20,9]=14648096.0
r[20,10]=14648096.0
r[20,11]=14644895.0
r[20,12]=14644895.0
r[20,13]=14644895.0
r[20,14]=14644895.0
r[20,15]=14644895.0
r[20,16]=14644895.0
r[20,17]=14644895.0
r[20,18]=14644895.0
r[20,19]=14644895.0
r[20,20]=14644895.0
r[20,21]=14644895.0
r[20,22]=14644895.0
r[20,23]=14644895.0
r[20,24]=14644895.0
r[20,25]=14644895.0
r[20,26]=14644895.0
r[20,27]=14644895.0
r[20,28]=14644895.0
r[20,29]=14644895.0
r[20,30]=14644895.0
r[20,31]=14644895.0
