data/mip_solutions/furman_sahinidis/transshipment/37sp-yfyv_gurobi.log

Gurobi 6.5.2 (linux64) logging started Tue Jun  6 12:36:48 2017

Changed value of parameter LogFile to test_cases/mip_solutions/furman_sahinidis/transshipment/37sp-yfyv_gurobi.log
   Prev: gurobi.log  Default: 
Changed value of parameter Threads to 1
   Prev: 0  Min: 0  Max: 1024  Default: 0
Optimize a model with 1577 rows, 12476 columns and 36212 nonzeros
Coefficient statistics:
  Matrix range    [1e+00, 1e+07]
  Objective range [1e+00, 1e+00]
  Bounds range    [1e+00, 1e+00]
  RHS range       [1e+00, 2e+07]
Presolve removed 1231 rows and 11557 columns
Presolve time: 0.01s
Presolved: 346 rows, 919 columns, 2294 nonzeros
Variable types: 732 continuous, 187 integer (187 binary)

Root relaxation: objective 3.222646e+01, 834 iterations, 0.01 seconds

    Nodes    |    Current Node    |     Objective Bounds      |     Work
 Expl Unexpl |  Obj  Depth IntInf | Incumbent    BestBd   Gap | It/Node Time

     0     0   32.22646    0   19          -   32.22646      -     -    0s
H    0     0                      42.0000000   32.22646  23.3%     -    0s
     0     0   32.71657    0   30   42.00000   32.71657  22.1%     -    0s
     0     0   32.71675    0   25   42.00000   32.71675  22.1%     -    0s
     0     0   32.98872    0   27   42.00000   32.98872  21.5%     -    0s
     0     0   32.99436    0   27   42.00000   32.99436  21.4%     -    0s
     0     0   33.11405    0   27   42.00000   33.11405  21.2%     -    0s
     0     0   33.12906    0   25   42.00000   33.12906  21.1%     -    0s
     0     0   33.34726    0   28   42.00000   33.34726  20.6%     -    0s
     0     0   33.35168    0   26   42.00000   33.35168  20.6%     -    0s
     0     0   33.35168    0   24   42.00000   33.35168  20.6%     -    0s
     0     0   33.36224    0   15   42.00000   33.36224  20.6%     -    0s
     0     0   33.45104    0   35   42.00000   33.45104  20.4%     -    0s
     0     0   33.54459    0   30   42.00000   33.54459  20.1%     -    0s
     0     0   33.63314    0   30   42.00000   33.63314  19.9%     -    0s
     0     0   33.83462    0   31   42.00000   33.83462  19.4%     -    0s
     0     0   33.92798    0   22   42.00000   33.92798  19.2%     -    0s
     0     0   33.92798    0   32   42.00000   33.92798  19.2%     -    0s
     0     0   34.01066    0   33   42.00000   34.01066  19.0%     -    0s
     0     0   34.02969    0   28   42.00000   34.02969  19.0%     -    0s
     0     0   34.09628    0   34   42.00000   34.09628  18.8%     -    0s
     0     0   34.10012    0   34   42.00000   34.10012  18.8%     -    0s
     0     0   34.14324    0   32   42.00000   34.14324  18.7%     -    0s
     0     0   34.16444    0   26   42.00000   34.16444  18.7%     -    0s
     0     0   34.17735    0   21   42.00000   34.17735  18.6%     -    0s
     0     0   34.17735    0   28   42.00000   34.17735  18.6%     -    0s
     0     0   34.20442    0   40   42.00000   34.20442  18.6%     -    0s
     0     0   34.20442    0   38   42.00000   34.20442  18.6%     -    0s
     0     0   34.22081    0   28   42.00000   34.22081  18.5%     -    0s
     0     0   34.22217    0   27   42.00000   34.22217  18.5%     -    0s
     0     0   34.28773    0   30   42.00000   34.28773  18.4%     -    0s
     0     0   34.31014    0   28   42.00000   34.31014  18.3%     -    0s
     0     0   34.34227    0   21   42.00000   34.34227  18.2%     -    0s
     0     0   34.36531    0   23   42.00000   34.36531  18.2%     -    0s
     0     0   34.37042    0   18   42.00000   34.37042  18.2%     -    0s
     0     0   34.37042    0   21   42.00000   34.37042  18.2%     -    0s
     0     0   34.37042    0   24   42.00000   34.37042  18.2%     -    0s
     0     0   34.37042    0   17   42.00000   34.37042  18.2%     -    0s
     0     2   34.37042    0   17   42.00000   34.37042  18.2%     -    0s
H    5     5                      41.0000000   34.37042  16.2%  92.6    0s
H   12    12                      40.0000000   34.37042  14.1%  81.1    0s
H   14    14                      38.0000000   34.37042  9.55%  94.9    0s
H  143    46                      37.0000000   35.00000  5.41%  34.1    0s
  6343  3297   36.00000   67    2   37.00000   35.00000  5.41%  19.6    5s
H 7598  4059                      36.0000055   35.00000  2.78%  19.2    5s

Cutting planes:
  Gomory: 1
  Cover: 12
  Implied bound: 70
  MIR: 26
  Flow cover: 55
  Flow path: 2
  Zero half: 2
  Network: 5

Explored 7598 nodes (152567 simplex iterations) in 5.86 seconds
Thread count was 1 (of 8 available processors)

Optimal solution found (tolerance 4.00e-02)
Best objective 3.600000545489e+01, best bound 3.500000000000e+01, gap 2.7778%

Gurobi 6.5.2 (linux64) logging started Mon Jul 24 16:42:43 2017

Changed value of parameter LogFile to data/mip_solutions/furman_sahinidis/transshipment/37sp-yfyv_gurobi.log
   Prev: gurobi.log  Default: 
Changed value of parameter Threads to 1
   Prev: 0  Min: 0  Max: 1024  Default: 0
Optimize a model with 1577 rows, 12476 columns and 36212 nonzeros
Coefficient statistics:
  Matrix range    [1e+00, 1e+07]
  Objective range [1e+00, 1e+00]
  Bounds range    [1e+00, 1e+00]
  RHS range       [1e+00, 2e+07]
Presolve removed 1231 rows and 11557 columns
Presolve time: 0.01s
Presolved: 346 rows, 919 columns, 2294 nonzeros
Variable types: 732 continuous, 187 integer (187 binary)

Root relaxation: objective 3.222646e+01, 834 iterations, 0.01 seconds

    Nodes    |    Current Node    |     Objective Bounds      |     Work
 Expl Unexpl |  Obj  Depth IntInf | Incumbent    BestBd   Gap | It/Node Time

     0     0   32.22646    0   19          -   32.22646      -     -    0s
H    0     0                      42.0000000   32.22646  23.3%     -    0s
     0     0   32.71657    0   30   42.00000   32.71657  22.1%     -    0s
     0     0   32.71675    0   25   42.00000   32.71675  22.1%     -    0s
     0     0   32.98872    0   27   42.00000   32.98872  21.5%     -    0s
     0     0   32.99436    0   27   42.00000   32.99436  21.4%     -    0s
     0     0   33.11405    0   27   42.00000   33.11405  21.2%     -    0s
     0     0   33.12906    0   25   42.00000   33.12906  21.1%     -    0s
     0     0   33.34726    0   28   42.00000   33.34726  20.6%     -    0s
     0     0   33.35168    0   26   42.00000   33.35168  20.6%     -    0s
     0     0   33.35168    0   24   42.00000   33.35168  20.6%     -    0s
     0     0   33.36224    0   15   42.00000   33.36224  20.6%     -    0s
     0     0   33.45104    0   35   42.00000   33.45104  20.4%     -    0s
     0     0   33.54459    0   30   42.00000   33.54459  20.1%     -    0s
     0     0   33.63314    0   30   42.00000   33.63314  19.9%     -    0s
     0     0   33.83462    0   31   42.00000   33.83462  19.4%     -    0s
     0     0   33.92798    0   22   42.00000   33.92798  19.2%     -    0s
     0     0   33.92798    0   32   42.00000   33.92798  19.2%     -    0s
     0     0   34.01066    0   33   42.00000   34.01066  19.0%     -    0s
     0     0   34.02969    0   28   42.00000   34.02969  19.0%     -    0s
     0     0   34.09628    0   34   42.00000   34.09628  18.8%     -    0s
     0     0   34.10012    0   34   42.00000   34.10012  18.8%     -    0s
     0     0   34.14324    0   32   42.00000   34.14324  18.7%     -    0s
     0     0   34.16444    0   26   42.00000   34.16444  18.7%     -    0s
     0     0   34.17735    0   21   42.00000   34.17735  18.6%     -    0s
     0     0   34.17735    0   28   42.00000   34.17735  18.6%     -    0s
     0     0   34.20442    0   40   42.00000   34.20442  18.6%     -    0s
     0     0   34.20442    0   38   42.00000   34.20442  18.6%     -    0s
     0     0   34.22081    0   28   42.00000   34.22081  18.5%     -    0s
     0     0   34.22217    0   27   42.00000   34.22217  18.5%     -    0s
     0     0   34.28773    0   30   42.00000   34.28773  18.4%     -    0s
     0     0   34.31014    0   28   42.00000   34.31014  18.3%     -    0s
     0     0   34.34227    0   21   42.00000   34.34227  18.2%     -    0s
     0     0   34.36531    0   23   42.00000   34.36531  18.2%     -    0s
     0     0   34.37042    0   18   42.00000   34.37042  18.2%     -    0s
     0     0   34.37042    0   21   42.00000   34.37042  18.2%     -    0s
     0     0   34.37042    0   24   42.00000   34.37042  18.2%     -    0s
     0     0   34.37042    0   17   42.00000   34.37042  18.2%     -    0s
     0     2   34.37042    0   17   42.00000   34.37042  18.2%     -    0s
H    5     5                      41.0000000   34.37042  16.2%  92.6    0s
H   12    12                      40.0000000   34.37042  14.1%  81.1    0s
H   14    14                      38.0000000   34.37042  9.55%  94.9    0s
H  143    46                      37.0000000   35.00000  5.41%  34.1    0s

Cutting planes:
  Gomory: 1
  Cover: 12
  Implied bound: 54
  MIR: 20
  Flow cover: 48
  Flow path: 2
  Zero half: 2
  Network: 5

Explored 1013 nodes (48674 simplex iterations) in 2.00 seconds
Thread count was 1 (of 8 available processors)

Time limit reached
Best objective 3.700000000000e+01, best bound 3.500000000000e+01, gap 5.4054%

Gurobi 6.5.2 (linux64) logging started Mon Jul 24 16:44:20 2017

Changed value of parameter LogFile to data/mip_solutions/furman_sahinidis/transshipment/37sp-yfyv_gurobi.log
   Prev: gurobi.log  Default: 
Changed value of parameter Threads to 1
   Prev: 0  Min: 0  Max: 1024  Default: 0
Optimize a model with 1577 rows, 12476 columns and 36212 nonzeros
Coefficient statistics:
  Matrix range    [1e+00, 1e+07]
  Objective range [1e+00, 1e+00]
  Bounds range    [1e+00, 1e+00]
  RHS range       [1e+00, 2e+07]
Presolve removed 1231 rows and 11557 columns
Presolve time: 0.01s
Presolved: 346 rows, 919 columns, 2294 nonzeros
Variable types: 732 continuous, 187 integer (187 binary)

Root relaxation: objective 3.222646e+01, 834 iterations, 0.01 seconds

    Nodes    |    Current Node    |     Objective Bounds      |     Work
 Expl Unexpl |  Obj  Depth IntInf | Incumbent    BestBd   Gap | It/Node Time

     0     0   32.22646    0   19          -   32.22646      -     -    0s
H    0     0                      42.0000000   32.22646  23.3%     -    0s
     0     0   32.71657    0   30   42.00000   32.71657  22.1%     -    0s
     0     0   32.71675    0   25   42.00000   32.71675  22.1%     -    0s
     0     0   32.98872    0   27   42.00000   32.98872  21.5%     -    0s
     0     0   32.99436    0   27   42.00000   32.99436  21.4%     -    0s
     0     0   33.11405    0   27   42.00000   33.11405  21.2%     -    0s
     0     0   33.12906    0   25   42.00000   33.12906  21.1%     -    0s
     0     0   33.34726    0   28   42.00000   33.34726  20.6%     -    0s
     0     0   33.35168    0   26   42.00000   33.35168  20.6%     -    0s
     0     0   33.35168    0   24   42.00000   33.35168  20.6%     -    0s
     0     0   33.36224    0   15   42.00000   33.36224  20.6%     -    0s
     0     0   33.45104    0   35   42.00000   33.45104  20.4%     -    0s
     0     0   33.54459    0   30   42.00000   33.54459  20.1%     -    0s
     0     0   33.63314    0   30   42.00000   33.63314  19.9%     -    0s
     0     0   33.83462    0   31   42.00000   33.83462  19.4%     -    0s
     0     0   33.92798    0   22   42.00000   33.92798  19.2%     -    0s
     0     0   33.92798    0   32   42.00000   33.92798  19.2%     -    0s
     0     0   34.01066    0   33   42.00000   34.01066  19.0%     -    0s
     0     0   34.02969    0   28   42.00000   34.02969  19.0%     -    0s
     0     0   34.09628    0   34   42.00000   34.09628  18.8%     -    0s
     0     0   34.10012    0   34   42.00000   34.10012  18.8%     -    0s
     0     0   34.14324    0   32   42.00000   34.14324  18.7%     -    0s
     0     0   34.16444    0   26   42.00000   34.16444  18.7%     -    0s
     0     0   34.17735    0   21   42.00000   34.17735  18.6%     -    0s
     0     0   34.17735    0   28   42.00000   34.17735  18.6%     -    0s
     0     0   34.20442    0   40   42.00000   34.20442  18.6%     -    0s
     0     0   34.20442    0   38   42.00000   34.20442  18.6%     -    0s
     0     0   34.22081    0   28   42.00000   34.22081  18.5%     -    0s
     0     0   34.22217    0   27   42.00000   34.22217  18.5%     -    0s
     0     0   34.28773    0   30   42.00000   34.28773  18.4%     -    0s
     0     0   34.31014    0   28   42.00000   34.31014  18.3%     -    0s
     0     0   34.34227    0   21   42.00000   34.34227  18.2%     -    0s
     0     0   34.36531    0   23   42.00000   34.36531  18.2%     -    0s
     0     0   34.37042    0   18   42.00000   34.37042  18.2%     -    0s
     0     0   34.37042    0   21   42.00000   34.37042  18.2%     -    0s
     0     0   34.37042    0   24   42.00000   34.37042  18.2%     -    0s
     0     0   34.37042    0   17   42.00000   34.37042  18.2%     -    0s
     0     2   34.37042    0   17   42.00000   34.37042  18.2%     -    0s
H    5     5                      41.0000000   34.37042  16.2%  92.6    0s
H   12    12                      40.0000000   34.37042  14.1%  81.1    0s
H   14    14                      38.0000000   34.37042  9.55%  94.9    0s
H  143    46                      37.0000000   35.00000  5.41%  34.1    0s

Cutting planes:
  Gomory: 1
  Cover: 12
  Implied bound: 54
  MIR: 20
  Flow cover: 48
  Flow path: 2
  Zero half: 2
  Network: 5

Explored 995 nodes (48498 simplex iterations) in 2.00 seconds
Thread count was 1 (of 8 available processors)

Time limit reached
Best objective 3.700000000000e+01, best bound 3.500000000000e+01, gap 5.4054%

Gurobi 6.5.2 (linux64) logging started Mon Jul 24 16:55:41 2017

Changed value of parameter LogFile to data/mip_solutions/furman_sahinidis/transshipment/37sp-yfyv_gurobi.log
   Prev: gurobi.log  Default: 
Changed value of parameter Threads to 1
   Prev: 0  Min: 0  Max: 1024  Default: 0
Optimize a model with 1577 rows, 12476 columns and 36212 nonzeros
Coefficient statistics:
  Matrix range    [1e+00, 1e+07]
  Objective range [1e+00, 1e+00]
  Bounds range    [1e+00, 1e+00]
  RHS range       [1e+00, 2e+07]
Presolve removed 1231 rows and 11557 columns
Presolve time: 0.01s
Presolved: 346 rows, 919 columns, 2294 nonzeros
Variable types: 732 continuous, 187 integer (187 binary)

Root relaxation: objective 3.222646e+01, 834 iterations, 0.01 seconds

    Nodes    |    Current Node    |     Objective Bounds      |     Work
 Expl Unexpl |  Obj  Depth IntInf | Incumbent    BestBd   Gap | It/Node Time

     0     0   32.22646    0   19          -   32.22646      -     -    0s
H    0     0                      42.0000000   32.22646  23.3%     -    0s
     0     0   32.71657    0   30   42.00000   32.71657  22.1%     -    0s
     0     0   32.71675    0   25   42.00000   32.71675  22.1%     -    0s
     0     0   32.98872    0   27   42.00000   32.98872  21.5%     -    0s
     0     0   32.99436    0   27   42.00000   32.99436  21.4%     -    0s
     0     0   33.11405    0   27   42.00000   33.11405  21.2%     -    0s
     0     0   33.12906    0   25   42.00000   33.12906  21.1%     -    0s
     0     0   33.34726    0   28   42.00000   33.34726  20.6%     -    0s
     0     0   33.35168    0   26   42.00000   33.35168  20.6%     -    0s
     0     0   33.35168    0   24   42.00000   33.35168  20.6%     -    0s
     0     0   33.36224    0   15   42.00000   33.36224  20.6%     -    0s
     0     0   33.45104    0   35   42.00000   33.45104  20.4%     -    0s
     0     0   33.54459    0   30   42.00000   33.54459  20.1%     -    0s
     0     0   33.63314    0   30   42.00000   33.63314  19.9%     -    0s
     0     0   33.83462    0   31   42.00000   33.83462  19.4%     -    0s
     0     0   33.92798    0   22   42.00000   33.92798  19.2%     -    0s
     0     0   33.92798    0   32   42.00000   33.92798  19.2%     -    0s
     0     0   34.01066    0   33   42.00000   34.01066  19.0%     -    0s
     0     0   34.02969    0   28   42.00000   34.02969  19.0%     -    0s
     0     0   34.09628    0   34   42.00000   34.09628  18.8%     -    0s
     0     0   34.10012    0   34   42.00000   34.10012  18.8%     -    0s
     0     0   34.14324    0   32   42.00000   34.14324  18.7%     -    0s
     0     0   34.16444    0   26   42.00000   34.16444  18.7%     -    0s
     0     0   34.17735    0   21   42.00000   34.17735  18.6%     -    0s
     0     0   34.17735    0   28   42.00000   34.17735  18.6%     -    0s
     0     0   34.20442    0   40   42.00000   34.20442  18.6%     -    0s
     0     0   34.20442    0   38   42.00000   34.20442  18.6%     -    0s
     0     0   34.22081    0   28   42.00000   34.22081  18.5%     -    0s
     0     0   34.22217    0   27   42.00000   34.22217  18.5%     -    0s
     0     0   34.28773    0   30   42.00000   34.28773  18.4%     -    0s
     0     0   34.31014    0   28   42.00000   34.31014  18.3%     -    0s
     0     0   34.34227    0   21   42.00000   34.34227  18.2%     -    0s
     0     0   34.36531    0   23   42.00000   34.36531  18.2%     -    0s
     0     0   34.37042    0   18   42.00000   34.37042  18.2%     -    0s
     0     0   34.37042    0   21   42.00000   34.37042  18.2%     -    0s
     0     0   34.37042    0   24   42.00000   34.37042  18.2%     -    0s
     0     0   34.37042    0   17   42.00000   34.37042  18.2%     -    0s
     0     2   34.37042    0   17   42.00000   34.37042  18.2%     -    0s
H    5     5                      41.0000000   34.37042  16.2%  92.6    0s
H   12    12                      40.0000000   34.37042  14.1%  81.1    0s
H   14    14                      38.0000000   34.37042  9.55%  94.9    0s
H  143    46                      37.0000000   35.00000  5.41%  34.1    0s

Cutting planes:
  Gomory: 1
  Cover: 12
  Implied bound: 66
  MIR: 22
  Flow cover: 52
  Flow path: 2
  Zero half: 2
  Network: 5

Explored 2760 nodes (73049 simplex iterations) in 3.00 seconds
Thread count was 1 (of 8 available processors)

Time limit reached
Best objective 3.700000000000e+01, best bound 3.500000000000e+01, gap 5.4054%

Gurobi 6.5.2 (linux64) logging started Mon Jul 24 16:57:00 2017

Changed value of parameter LogFile to data/mip_solutions/furman_sahinidis/transshipment/37sp-yfyv_gurobi.log
   Prev: gurobi.log  Default: 
Changed value of parameter Threads to 1
   Prev: 0  Min: 0  Max: 1024  Default: 0
Optimize a model with 1577 rows, 12476 columns and 36212 nonzeros
Coefficient statistics:
  Matrix range    [1e+00, 1e+07]
  Objective range [1e+00, 1e+00]
  Bounds range    [1e+00, 1e+00]
  RHS range       [1e+00, 2e+07]
Presolve removed 1231 rows and 11557 columns
Presolve time: 0.01s
Presolved: 346 rows, 919 columns, 2294 nonzeros
Variable types: 732 continuous, 187 integer (187 binary)

Root relaxation: objective 3.222646e+01, 834 iterations, 0.01 seconds

    Nodes    |    Current Node    |     Objective Bounds      |     Work
 Expl Unexpl |  Obj  Depth IntInf | Incumbent    BestBd   Gap | It/Node Time

     0     0   32.22646    0   19          -   32.22646      -     -    0s
H    0     0                      42.0000000   32.22646  23.3%     -    0s
     0     0   32.71657    0   30   42.00000   32.71657  22.1%     -    0s
     0     0   32.71675    0   25   42.00000   32.71675  22.1%     -    0s
     0     0   32.98872    0   27   42.00000   32.98872  21.5%     -    0s
     0     0   32.99436    0   27   42.00000   32.99436  21.4%     -    0s
     0     0   33.11405    0   27   42.00000   33.11405  21.2%     -    0s
     0     0   33.12906    0   25   42.00000   33.12906  21.1%     -    0s
     0     0   33.34726    0   28   42.00000   33.34726  20.6%     -    0s
     0     0   33.35168    0   26   42.00000   33.35168  20.6%     -    0s
     0     0   33.35168    0   24   42.00000   33.35168  20.6%     -    0s
     0     0   33.36224    0   15   42.00000   33.36224  20.6%     -    0s
     0     0   33.45104    0   35   42.00000   33.45104  20.4%     -    0s
     0     0   33.54459    0   30   42.00000   33.54459  20.1%     -    0s
     0     0   33.63314    0   30   42.00000   33.63314  19.9%     -    0s
     0     0   33.83462    0   31   42.00000   33.83462  19.4%     -    0s
     0     0   33.92798    0   22   42.00000   33.92798  19.2%     -    0s
     0     0   33.92798    0   32   42.00000   33.92798  19.2%     -    0s
     0     0   34.01066    0   33   42.00000   34.01066  19.0%     -    0s
     0     0   34.02969    0   28   42.00000   34.02969  19.0%     -    0s
     0     0   34.09628    0   34   42.00000   34.09628  18.8%     -    0s
     0     0   34.10012    0   34   42.00000   34.10012  18.8%     -    0s
     0     0   34.14324    0   32   42.00000   34.14324  18.7%     -    0s
     0     0   34.16444    0   26   42.00000   34.16444  18.7%     -    0s
     0     0   34.17735    0   21   42.00000   34.17735  18.6%     -    0s
     0     0   34.17735    0   28   42.00000   34.17735  18.6%     -    0s
     0     0   34.20442    0   40   42.00000   34.20442  18.6%     -    0s
     0     0   34.20442    0   38   42.00000   34.20442  18.6%     -    0s
     0     0   34.22081    0   28   42.00000   34.22081  18.5%     -    0s
     0     0   34.22217    0   27   42.00000   34.22217  18.5%     -    0s
     0     0   34.28773    0   30   42.00000   34.28773  18.4%     -    0s
     0     0   34.31014    0   28   42.00000   34.31014  18.3%     -    0s
     0     0   34.34227    0   21   42.00000   34.34227  18.2%     -    0s
     0     0   34.36531    0   23   42.00000   34.36531  18.2%     -    0s
     0     0   34.37042    0   18   42.00000   34.37042  18.2%     -    0s
     0     0   34.37042    0   21   42.00000   34.37042  18.2%     -    0s
     0     0   34.37042    0   24   42.00000   34.37042  18.2%     -    0s
     0     0   34.37042    0   17   42.00000   34.37042  18.2%     -    0s
     0     2   34.37042    0   17   42.00000   34.37042  18.2%     -    0s
H    5     5                      41.0000000   34.37042  16.2%  92.6    0s
H   12    12                      40.0000000   34.37042  14.1%  81.1    0s
H   14    14                      38.0000000   34.37042  9.55%  94.9    0s
H  143    46                      37.0000000   35.00000  5.41%  34.1    0s

Cutting planes:
  Gomory: 1
  Cover: 12
  Implied bound: 66
  MIR: 22
  Flow cover: 52
  Flow path: 2
  Zero half: 2
  Network: 5

Explored 2761 nodes (73076 simplex iterations) in 3.00 seconds
Thread count was 1 (of 8 available processors)

Time limit reached
Best objective 3.700000000000e+01, best bound 3.500000000000e+01, gap 5.4054%

Gurobi 6.5.2 (linux64) logging started Wed Jul 26 11:53:13 2017

Changed value of parameter LogFile to data/mip_solutions/furman_sahinidis/transshipment/37sp-yfyv_gurobi.log
   Prev: gurobi.log  Default: 
Changed value of parameter Threads to 1
   Prev: 0  Min: 0  Max: 1024  Default: 0
Optimize a model with 1577 rows, 12476 columns and 36212 nonzeros
Coefficient statistics:
  Matrix range    [1e+00, 1e+07]
  Objective range [1e+00, 1e+00]
  Bounds range    [1e+00, 1e+00]
  RHS range       [1e+00, 2e+07]
Presolve removed 1231 rows and 11557 columns
Presolve time: 0.01s
Presolved: 346 rows, 919 columns, 2294 nonzeros
Variable types: 732 continuous, 187 integer (187 binary)

Root relaxation: objective 3.222646e+01, 834 iterations, 0.01 seconds

    Nodes    |    Current Node    |     Objective Bounds      |     Work
 Expl Unexpl |  Obj  Depth IntInf | Incumbent    BestBd   Gap | It/Node Time

     0     0   32.22646    0   19          -   32.22646      -     -    0s
H    0     0                      42.0000000   32.22646  23.3%     -    0s
     0     0   32.71657    0   30   42.00000   32.71657  22.1%     -    0s
     0     0   32.71675    0   25   42.00000   32.71675  22.1%     -    0s
     0     0   32.98872    0   27   42.00000   32.98872  21.5%     -    0s
     0     0   32.99436    0   27   42.00000   32.99436  21.4%     -    0s
     0     0   33.11405    0   27   42.00000   33.11405  21.2%     -    0s
     0     0   33.12906    0   25   42.00000   33.12906  21.1%     -    0s
     0     0   33.34726    0   28   42.00000   33.34726  20.6%     -    0s
     0     0   33.35168    0   26   42.00000   33.35168  20.6%     -    0s
     0     0   33.35168    0   24   42.00000   33.35168  20.6%     -    0s
     0     0   33.36224    0   15   42.00000   33.36224  20.6%     -    0s
     0     0   33.45104    0   35   42.00000   33.45104  20.4%     -    0s
     0     0   33.54459    0   30   42.00000   33.54459  20.1%     -    0s
     0     0   33.63314    0   30   42.00000   33.63314  19.9%     -    0s
     0     0   33.83462    0   31   42.00000   33.83462  19.4%     -    0s
     0     0   33.92798    0   22   42.00000   33.92798  19.2%     -    0s
     0     0   33.92798    0   32   42.00000   33.92798  19.2%     -    0s
     0     0   34.01066    0   33   42.00000   34.01066  19.0%     -    0s
     0     0   34.02969    0   28   42.00000   34.02969  19.0%     -    0s
     0     0   34.09628    0   34   42.00000   34.09628  18.8%     -    0s
     0     0   34.10012    0   34   42.00000   34.10012  18.8%     -    0s
     0     0   34.14324    0   32   42.00000   34.14324  18.7%     -    0s
     0     0   34.16444    0   26   42.00000   34.16444  18.7%     -    0s
     0     0   34.17735    0   21   42.00000   34.17735  18.6%     -    0s
     0     0   34.17735    0   28   42.00000   34.17735  18.6%     -    0s
     0     0   34.20442    0   40   42.00000   34.20442  18.6%     -    0s
     0     0   34.20442    0   38   42.00000   34.20442  18.6%     -    0s
     0     0   34.22081    0   28   42.00000   34.22081  18.5%     -    0s
     0     0   34.22217    0   27   42.00000   34.22217  18.5%     -    0s
     0     0   34.28773    0   30   42.00000   34.28773  18.4%     -    0s
     0     0   34.31014    0   28   42.00000   34.31014  18.3%     -    0s
     0     0   34.34227    0   21   42.00000   34.34227  18.2%     -    0s
     0     0   34.36531    0   23   42.00000   34.36531  18.2%     -    0s
     0     0   34.37042    0   18   42.00000   34.37042  18.2%     -    0s
     0     0   34.37042    0   21   42.00000   34.37042  18.2%     -    0s
     0     0   34.37042    0   24   42.00000   34.37042  18.2%     -    0s
     0     0   34.37042    0   17   42.00000   34.37042  18.2%     -    0s
     0     2   34.37042    0   17   42.00000   34.37042  18.2%     -    0s
H    5     5                      41.0000000   34.37042  16.2%  92.6    0s
H   12    12                      40.0000000   34.37042  14.1%  81.1    0s
H   14    14                      38.0000000   34.37042  9.55%  94.9    0s
H  143    46                      37.0000000   35.00000  5.41%  34.1    0s
  6332  3288   35.02789   57    3   37.00000   35.00000  5.41%  19.6    5s
H 7598  4059                      36.0000055   35.00000  2.78%  19.2    5s

Cutting planes:
  Gomory: 1
  Cover: 12
  Implied bound: 70
  MIR: 26
  Flow cover: 55
  Flow path: 2
  Zero half: 2
  Network: 5

Explored 7598 nodes (152567 simplex iterations) in 5.87 seconds
Thread count was 1 (of 8 available processors)

Optimal solution found (tolerance 4.00e-02)
Best objective 3.600000545489e+01, best bound 3.500000000000e+01, gap 2.7778%
